c
p cnf 24 56
4 8 0
-22 -12 0
-5 -23 0
-9 -2 0
21 24 0
11 24 0
-8 -13 0
-14 -2 0
24 23 0
24 -8 0
-21 -11 0
-8 -19 0
13 8 0
14 -5 0
3 22 0
6 4 0
19 -7 0
5 -11 0
20 -1 0
2 22 0
-4 -7 0
14 -19 0
15 10 0
12 4 0
-24 -2 0
-9 7 0
-6 12 0
-4 12 0
8 7 0
15 -6 0
17 1 0
3 11 0
4 -1 0
24 -6 0
16 -5 0
-18 -2 0
-20 14 0
-4 23 0
-19 16 0
-1 -16 0
-18 4 0
13 6 0
-21 11 0
-16 -6 0
-12 -10 0
-2 4 0
-3 -16 0
-16 6 0
14 -13 0
-21 14 0
1 4 0
9 10 0
-5 9 0
13 -3 0
-13 -3 0
20 -23 0
